\ This file has been generated by DOcplex
\ ENCODING=ISO-8859-1
\Problem name: Orandom14342_6.lp

Minimize
 obj: - 20.000000068885 x0 - 10.000000034442 x1 - 5.000000017221 x2
      - 32.000000068885 x3 - 16.000000034442 x4 - 8.000000017221 x5 + [
      48.000000039363 x0^2 + 48.000000039363 x0*x1 + 24.000000019681 x0*x2
      + 32.000000078725 x0*x3 + 16.000000039363 x0*x4 + 8.000000019681 x0*x5
      + 12.000000009841 x1^2 + 12.000000009841 x1*x2 + 16.000000039363 x1*x3
      + 8.000000019681 x1*x4 + 4.000000009841 x1*x5 + 3.000000002460 x2^2
      + 8.000000019681 x2*x3 + 4.000000009841 x2*x4 + 2.000000004920 x2*x5
      + 16.000000039363 x3^2 + 16.000000039363 x3*x4 + 8.000000019681 x3*x5
      + 4.000000009841 x4^2 + 4.000000009841 x4*x5 + 1.000000002460 x5^2 ]/2 +
      24.500000060274
Subject To

Bounds
 0 <= x0 <= 1
 0 <= x1 <= 1
 0 <= x2 <= 1
 0 <= x3 <= 1
 0 <= x4 <= 1
 0 <= x5 <= 1

Binaries
 x0 x1 x2 x3 x4 x5
End
